[2026-03-01T17:28:15] Logging to: /run/media/saveas/Secondary-Storage/Masters/CS234/CS234_Reinforcement_Learning/Final Project/CS234_Final_Project/results/trajectory_optimization/nlp/TRACK5_350m/base/run_trajopt_demo_output.log
======================================================================
IPOPT TRAJECTORY OPTIMIZATION DEMO (SINGLE STAGE)
======================================================================

1. Loading track: /run/media/saveas/Secondary-Storage/Masters/CS234/CS234_Reinforcement_Learning/Final Project/CS234_Final_Project/maps/TRACK5_350m.mat
   Track length: 350.0 m

2. Creating vehicle model...
   Vehicle: SingleTrackModel(VW_Golf_GTI, weight_transfer=enabled)

3. Loaded obstacles from map: 0

4. Setup:
   N = 120
   ds = 2.92 m
   Obstacle subsamples/segment = 7
   Obstacle enforce midpoints = False
   Obstacle use slack = False
   Track buffer = 0.00 m
   lambda_u = 0.005
   vehicle_radius_m = 0.00
   eps_s = 0.100, eps_kappa = 0.050
   Solver path = Python/CasADi (IPOPT)

======================================================================
SINGLE STAGE: COMBINED OBJECTIVE (ACCEPTANCE-GATED)
======================================================================
Acceptance gates: success=True, max_slack<=0.000e+00, min_clearance>=-0.0010 m
Acceptance policy: practical epsilon mode (allows tiny negative dense clearance).
Initializer: obstacle_aware_init=True, sigma=8.00 m, margin=0.30 m

Attempt 1/4: baseline
  N=120, ds=2.917 m, subsamples=7, obstacle_clearance_m=0.000
Exception of type: DYNAMIC_LIBRARY_FAILURE in file "Common/IpLibraryLoader.cpp" at line 72:
 Exception message: libhsl.so: cannot open shared object file: No such file or directory

EXIT: Library loading failure.
      solver  :   t_proc      (avg)   t_wall      (avg)    n_eval
       total  | 714.00us (714.00us) 711.90us (711.90us)         1
Solver failed with ipopt.linear_solver=ma57: Error in Opti::solve [OptiNode] at .../casadi/core/optistack.cpp:217:
.../casadi/core/optistack_internal.cpp:1338: Assertion "return_success(accept_limit)" failed:
Solver failed. You may use opti.debug.value to investigate the latest values of variables. return_status is 'Invalid_Option'
Retrying with IPOPT default linear solver.

******************************************************************************
This program contains Ipopt, a library for large-scale nonlinear optimization.
 Ipopt is released as open source code under the Eclipse Public License (EPL).
         For more information visit https://github.com/coin-or/Ipopt
******************************************************************************

This is Ipopt version 3.14.11, running with linear solver MUMPS 5.4.1.

Number of nonzeros in equality constraint Jacobian...:    13205
Number of nonzeros in inequality constraint Jacobian.:     1415
Number of nonzeros in Lagrangian Hessian.............:     5071

Total number of variables............................:     1210
                     variables with only lower bounds:        0
                variables with lower and upper bounds:        0
                     variables with only upper bounds:        0
Total number of equality constraints.................:      970
Total number of inequality constraints...............:     1053
        inequality constraints with only lower bounds:      690
   inequality constraints with lower and upper bounds:        0
        inequality constraints with only upper bounds:      363

iter    objective    inf_pr   inf_du lg(mu)  ||d||  lg(rg) alpha_du alpha_pr  ls
   0  3.5000000e+01 3.79e-01 1.08e+00  -1.0 0.00e+00    -  0.00e+00 0.00e+00   0
   1  3.4862270e+01 1.02e+00 1.25e+03  -1.0 5.01e+00   2.0 7.54e-01 1.00e+00H  1
   2  3.4862860e+01 6.66e-01 1.00e+03  -1.0 7.90e-02   3.3 1.00e+00 5.00e-01h  2
   3  3.4865861e+01 4.67e-02 2.98e+02  -1.0 7.38e-02   2.9 1.00e+00 1.00e+00h  1
   4  3.4865889e+01 4.57e-03 1.35e+02  -1.0 1.25e-02   3.3 1.00e+00 1.00e+00h  1
   5  3.4865854e+01 3.40e-05 1.10e+00  -1.0 1.24e-03   2.8 1.00e+00 1.00e+00h  1
   6  3.4865724e+01 2.19e-07 2.74e-02  -1.0 1.30e-04   2.3 1.00e+00 1.00e+00h  1
   7  3.9264943e+00 9.02e+00 3.62e-01  -2.5 4.33e+01    -  2.15e-01 7.16e-01f  1
   8  1.3035209e+01 1.37e+01 3.28e-01  -2.5 1.98e+01    -  5.21e-01 6.80e-01H  1
   9  1.3264173e+01 1.31e+01 2.82e+03  -2.5 8.83e+00   1.8 9.06e-04 4.18e-02h  1
iter    objective    inf_pr   inf_du lg(mu)  ||d||  lg(rg) alpha_du alpha_pr  ls
  10  1.3264861e+01 1.31e+01 2.82e+03  -2.5 7.99e+00   2.3 1.11e-01 1.34e-04h  1
  11  1.3268215e+01 1.31e+01 4.58e+03  -2.5 7.39e+00   2.7 7.52e-02 6.45e-04h  1
  12  1.3478624e+01 1.26e+01 2.07e+04  -2.5 7.38e+00   3.1 1.44e-01 4.04e-02h  2
  13  1.3739360e+01 1.20e+01 5.85e+04  -2.5 8.03e+00   3.6 9.36e-02 5.08e-02h  1
  14  1.4143288e+01 1.10e+01 3.63e+05  -2.5 8.27e+00   4.0 6.03e-04 8.27e-02h  1
  15  1.4196477e+01 1.09e+01 2.42e+06  -2.5 7.61e+00   5.3 1.23e-01 1.18e-02h  1
  16  1.4196678e+01 1.09e+01 3.29e+06  -2.5 7.08e+00   4.8 1.86e-01 4.40e-05h  1
  17  1.4271845e+01 1.07e+01 3.25e+06  -2.5 2.26e+01   4.4 7.49e-03 1.63e-02h  1
  18  1.4272713e+01 1.07e+01 2.56e+06  -2.5 7.97e+00   3.9 2.37e-01 1.85e-04h  1
  19  1.4277083e+01 1.07e+01 2.30e+06  -2.5 7.82e+00   4.3 3.17e-01 9.50e-04h  1
iter    objective    inf_pr   inf_du lg(mu)  ||d||  lg(rg) alpha_du alpha_pr  ls
  20  1.6256622e+01 6.28e+00 1.48e+06  -2.5 1.02e+01   3.8 3.51e-01 4.21e-01h  1
  21  1.6263747e+01 6.27e+00 1.34e+06  -2.5 4.11e+00   4.2 1.85e-01 2.55e-03h  1
  22  1.6263990e+01 6.27e+00 1.34e+06  -2.5 9.70e+00   3.8 1.12e-01 9.27e-05h  1
  23  1.6571182e+01 6.20e+00 6.83e+05  -2.5 4.17e+00   4.2 5.22e-01 1.10e-01h  1
  24  1.6573112e+01 6.20e+00 8.57e+05  -2.5 3.76e+00   4.6 1.84e-01 7.35e-04h  1
  25  1.6873491e+01 5.56e+00 4.12e+05  -2.5 3.66e+00   4.1 6.64e-01 1.12e-01h  1
  26  1.7259450e+01 4.79e+00 6.51e+05  -2.5 3.52e+00   4.6 3.00e-01 1.58e-01h  1
  27  1.7261355e+01 4.78e+00 6.50e+05  -2.5 3.14e+00   4.1 1.00e+00 8.71e-04h  1
  28  1.7309171e+01 4.68e+00 6.33e+05  -2.5 3.28e+00   4.5 1.00e+00 2.23e-02h  1
  29  1.8213740e+01 3.57e+00 3.42e+05  -2.5 3.05e+00   4.0 1.00e+00 4.19e-01h  1
iter    objective    inf_pr   inf_du lg(mu)  ||d||  lg(rg) alpha_du alpha_pr  ls
  30  1.8430706e+01 3.19e+00 2.76e+05  -2.5 2.34e+00   4.5 5.04e-05 1.64e-01h  1
  31  1.9385278e+01 6.69e+00 3.35e+05  -2.5 3.21e+01   4.0 6.36e-02 2.47e-01h  1
  32  1.9385879e+01 6.69e+00 3.35e+05  -2.5 6.33e+00   4.4 1.37e-01 8.30e-04h  1
  33r 1.9385879e+01 6.69e+00 1.00e+03   0.8 0.00e+00   4.8 0.00e+00 4.85e-07R  5
  34r 1.9406110e+01 1.51e+00 9.88e+02   0.8 5.26e+03    -  3.31e-01 1.09e-03f  1
  35  1.9846682e+01 3.22e+00 2.20e+00  -2.5 6.83e+00    -  4.60e-01 4.55e-01h  2
  36  1.9862283e+01 3.08e+00 2.14e+00  -2.5 1.27e+01    -  1.29e-01 2.70e-02H  1
  37  1.9862335e+01 3.08e+00 9.32e+00  -2.5 1.31e+00   4.4 2.33e-03 9.53e-05h  1
  38  1.9865363e+01 3.06e+00 5.90e+01  -2.5 1.31e+00   3.9 4.76e-03 5.49e-03h  1
  39  1.9865482e+01 3.06e+00 1.73e+02  -2.5 1.39e+00   3.4 2.16e-02 2.12e-04h  1
iter    objective    inf_pr   inf_du lg(mu)  ||d||  lg(rg) alpha_du alpha_pr  ls
  40  1.9869456e+01 3.04e+00 1.11e+03  -2.5 1.39e+00   2.9 3.23e-01 7.04e-03h  1
  41  1.9890033e+01 2.93e+00 1.07e+03  -2.5 1.42e+00   2.5 2.34e-02 3.64e-02h  1
  42  1.9911753e+01 2.82e+00 7.99e+02  -2.5 1.47e+00   2.0 3.33e-01 3.86e-02h  1
  43  1.9990227e+01 2.53e+00 3.78e+02  -2.5 1.66e+00   1.5 6.80e-01 1.14e-01h  1
  44  2.0034208e+01 2.38e+00 2.65e+02  -2.5 3.05e+00   1.0 5.08e-01 6.51e-02h  1
  45  2.0472302e+01 4.11e+00 4.80e+02  -2.5 1.53e+00   1.5 2.03e-01 7.44e-01h  1
  46  2.0485820e+01 3.84e+00 4.49e+02  -2.5 5.02e-01   1.0 5.81e-01 6.56e-02h  1
  47  2.0662043e+01 7.54e-01 4.43e+02  -2.5 4.74e-01   1.4 8.63e-02 1.00e+00h  1
  48  2.0678427e+01 1.30e-01 6.01e+01  -2.5 1.99e-01   0.9 9.99e-01 1.00e+00h  1
  49  2.0681966e+01 8.58e-03 4.99e+00  -2.5 1.11e-01   0.4 1.00e+00 1.00e+00f  1
iter    objective    inf_pr   inf_du lg(mu)  ||d||  lg(rg) alpha_du alpha_pr  ls
  50  2.0667214e+01 2.75e-02 2.53e-01  -2.5 5.21e-02  -0.0 1.00e+00 1.00e+00h  1
  51  2.0624679e+01 4.90e-02 5.23e-02  -2.5 1.52e-01  -0.5 1.00e+00 1.00e+00h  1
  52  2.0512844e+01 3.15e-01 9.21e-02  -2.5 4.29e-01  -1.0 1.00e+00 1.00e+00h  1
  53  2.0289543e+01 3.93e-02 3.51e-02  -2.5 1.01e+00  -1.5 1.00e+00 1.00e+00h  1
  54  1.9990010e+01 3.16e-01 2.04e-02  -2.5 1.76e+00  -1.9 1.00e+00 1.00e+00h  1
  55  1.9923167e+01 4.53e-01 1.72e-02  -2.5 5.18e-01  -1.5 1.00e+00 1.00e+00h  1
  56  1.9796795e+01 2.83e-01 2.56e-02  -2.5 8.85e-01  -2.0 1.00e+00 1.00e+00h  1
  57  1.9562991e+01 5.95e-01 5.45e-02  -2.5 1.66e+00  -2.5 1.00e+00 1.00e+00h  1
  58  1.9124457e+01 2.54e+00 3.54e-01  -2.5 4.30e+00  -2.9 1.00e+00 1.00e+00h  1
  59  1.9117355e+01 2.86e+00 3.36e-01  -2.5 6.98e+00  -2.5 1.57e-01 4.78e-02h  2
iter    objective    inf_pr   inf_du lg(mu)  ||d||  lg(rg) alpha_du alpha_pr  ls
  60  1.8878293e+01 2.10e+00 9.18e-02  -2.5 4.54e+00  -3.0 1.00e+00 1.00e+00h  1
  61  1.8821022e+01 1.38e+00 1.29e-01  -2.5 1.80e+00  -2.6 1.00e+00 1.00e+00h  1
  62  1.8660687e+01 1.03e+00 9.30e-02  -2.5 4.03e+00  -3.0 1.00e+00 1.00e+00h  1
  63  1.8542992e+01 1.91e+00 4.11e-02  -2.5 7.51e+00  -3.5 1.00e+00 6.42e-01h  1
  64  1.8555666e+01 1.63e+00 1.38e-02  -2.5 1.86e+00  -3.1 1.00e+00 1.00e+00h  1
  65  1.8519413e+01 6.74e-01 6.31e-02  -2.5 3.70e+00    -  1.00e+00 1.00e+00h  1
  66  1.8529852e+01 2.55e-01 1.84e-02  -2.5 4.03e-01  -2.7 1.00e+00 1.00e+00h  1
  67  1.8528480e+01 8.69e-02 1.06e-02  -2.5 3.60e-01  -3.1 1.00e+00 1.00e+00h  1
  68  1.8528003e+01 1.36e+00 7.12e-03  -2.5 1.32e+00  -3.6 1.00e+00 1.00e+00h  1
  69  1.8528182e+01 2.62e-01 5.21e-03  -2.5 4.58e-01  -3.2 1.00e+00 1.00e+00h  1
iter    objective    inf_pr   inf_du lg(mu)  ||d||  lg(rg) alpha_du alpha_pr  ls
  70  1.8527149e+01 3.65e-01 6.25e-04  -2.5 1.65e+00  -3.7 1.00e+00 1.00e+00h  1
  71  1.8526309e+01 4.51e-01 2.97e-03  -2.5 7.31e-01  -3.2 1.00e+00 1.00e+00h  1
  72  1.8526148e+01 2.36e-01 2.84e-03  -2.5 1.22e-01  -1.9 1.00e+00 1.00e+00h  1
  73  1.8525752e+01 5.31e-01 8.98e-03  -2.5 2.82e-01  -2.4 1.00e+00 5.00e-01h  2
  74  1.8524521e+01 1.25e-01 2.94e-03  -2.5 4.79e-01    -  1.00e+00 1.00e+00h  1
  75  1.8523902e+01 2.99e-01 1.40e-03  -2.5 6.25e-01    -  1.00e+00 1.00e+00h  1
  76  1.8524103e+01 1.97e-02 6.87e-05  -2.5 2.89e-01    -  1.00e+00 1.00e+00h  1
  77  1.8419636e+01 3.67e-01 9.35e-03  -3.8 1.31e+00    -  8.73e-01 7.09e-01h  1
  78  1.8405643e+01 3.55e-01 3.29e-02  -3.8 1.80e+01    -  5.32e-01 1.39e-01h  1
  79  1.8356824e+01 7.15e-01 1.18e-02  -3.8 2.14e+00    -  8.51e-01 6.82e-01h  1
iter    objective    inf_pr   inf_du lg(mu)  ||d||  lg(rg) alpha_du alpha_pr  ls
  80  1.8351848e+01 3.32e-01 8.03e-03  -3.8 3.26e-01  -2.9 9.97e-01 1.00e+00h  1
  81  1.8344582e+01 2.64e-01 3.47e-02  -3.8 7.92e+00    -  7.24e-01 2.19e-01h  1
  82  1.8333588e+01 1.27e-01 2.65e-03  -3.8 6.05e-01    -  1.00e+00 1.00e+00h  1
  83  1.8334745e+01 9.98e-02 8.31e-04  -3.8 2.00e-01    -  1.00e+00 1.00e+00h  1
  84  1.8334527e+01 7.25e-02 1.39e-03  -3.8 4.69e-01    -  1.00e+00 1.00e+00h  1
  85  1.8334403e+01 4.96e-03 3.07e-04  -3.8 1.98e-01    -  1.00e+00 1.00e+00h  1
  86  1.8334509e+01 6.32e-04 4.28e-05  -3.8 6.59e-02    -  1.00e+00 1.00e+00h  1
  87  1.8325784e+01 3.48e-02 2.86e-03  -5.7 4.05e-01    -  9.29e-01 7.07e-01h  1
  88  1.8322993e+01 1.17e-02 1.02e-03  -5.7 1.85e-01    -  9.63e-01 8.67e-01h  1
  89  1.8322578e+01 2.50e-03 1.22e-04  -5.7 7.34e-02    -  1.00e+00 1.00e+00h  1
iter    objective    inf_pr   inf_du lg(mu)  ||d||  lg(rg) alpha_du alpha_pr  ls
  90  1.8322572e+01 1.52e-04 1.80e-05  -5.7 3.57e-02    -  1.00e+00 1.00e+00h  1
  91  1.8322571e+01 3.04e-06 2.94e-07  -5.7 4.46e-03    -  1.00e+00 1.00e+00h  1
  92  1.8322447e+01 1.32e-04 3.61e-05  -7.0 2.13e-02    -  1.00e+00 9.47e-01h  1
  93  1.8322440e+01 9.79e-06 1.68e-07  -7.0 3.36e-03    -  1.00e+00 1.00e+00f  1
  94  1.8322440e+01 2.59e-07 2.05e-09  -7.0 7.83e-04    -  1.00e+00 1.00e+00h  1

Number of Iterations....: 94

                                   (scaled)                 (unscaled)
Objective...............:   1.8322440342103292e+01    1.8322440342103292e+01
Dual infeasibility......:   2.0475709617412408e-09    2.0475709617412408e-09
Constraint violation....:   2.2563996727015710e-07    2.5947571824502802e-07
Variable bound violation:   0.0000000000000000e+00    0.0000000000000000e+00
Complementarity.........:   1.0160983107149940e-07    1.0160983107149940e-07
Overall NLP error.......:   2.2563996727015710e-07    2.5947571824502802e-07


Number of objective function evaluations             = 116
Number of objective gradient evaluations             = 95
Number of equality constraint evaluations            = 116
Number of inequality constraint evaluations          = 116
Number of equality constraint Jacobian evaluations   = 96
Number of inequality constraint Jacobian evaluations = 96
Number of Lagrangian Hessian evaluations             = 94
Total seconds in IPOPT                               = 14.084

EXIT: Optimal Solution Found.
      solver  :   t_proc      (avg)   t_wall      (avg)    n_eval
       nlp_f  |   3.66ms ( 31.52us)   3.66ms ( 31.59us)       116
       nlp_g  | 455.73ms (  3.93ms) 458.62ms (  3.95ms)       116
  nlp_grad_f  |   4.57ms ( 47.57us)   4.58ms ( 47.68us)        96
  nlp_hess_l  |   9.72 s (104.47ms)   9.78 s (105.19ms)        93
   nlp_jac_g  |   2.55 s ( 26.29ms)   2.57 s ( 26.46ms)        97
       total  |  13.99 s ( 13.99 s)  14.08 s ( 14.08 s)         1
  Success: True
  Cost: 18.3224
  Iterations: 94
  Solve time: 29.04 s
  Max obstacle slack: 0.0000e+00
  Min obstacle clearance: inf m
  Accepted: True

Accepted attempt: baseline

Generating plots...
  Saved: /run/media/saveas/Secondary-Storage/Masters/CS234/CS234_Reinforcement_Learning/Final Project/CS234_Final_Project/results/trajectory_optimization/nlp/TRACK5_350m/base/ipopt_single_stage_trajectory.png
  Saved: /run/media/saveas/Secondary-Storage/Masters/CS234/CS234_Reinforcement_Learning/Final Project/CS234_Final_Project/results/trajectory_optimization/nlp/TRACK5_350m/base/ipopt_single_stage_states.png
  Saved: /run/media/saveas/Secondary-Storage/Masters/CS234/CS234_Reinforcement_Learning/Final Project/CS234_Final_Project/results/trajectory_optimization/nlp/TRACK5_350m/base/ipopt_single_stage_controls.png

Generating animation...
  Saved: /run/media/saveas/Secondary-Storage/Masters/CS234/CS234_Reinforcement_Learning/Final Project/CS234_Final_Project/results/trajectory_optimization/nlp/TRACK5_350m/base/ipopt_single_stage_animation.gif

======================================================================
SUMMARY
======================================================================
Selected attempt: baseline
Attempt                    N      Subs   Clear    Iters    Time [s]   Cost [s]   Max Sigma    Min Clear [m]  Accepted
-----------------------------------------------------------------------------------------------------------------------------
baseline                   120    7      0.000    94       29.04      18.3224    0.000e+00    inf            True

All outputs saved to: /run/media/saveas/Secondary-Storage/Masters/CS234/CS234_Reinforcement_Learning/Final Project/CS234_Final_Project/results/trajectory_optimization/nlp/TRACK5_350m/base
